<number of tasks>
50

<cycle time>
1000

<order strength>
0.202


<task times>
1 48
2 21
3 444
4 57
5 156
6 234
7 252
8 63
9 116
10 305
11 26
12 443
13 160
14 614
15 474
16 139
17 51
18 129
19 93
20 243
21 25
22 242
23 24
24 153
25 104
26 234
27 131
28 110
29 225
30 578
31 268
32 169
33 67
34 501
35 237
36 98
37 146
38 25
39 164
40 290
41 265
42 52
43 145
44 54
45 32
46 87
47 136
48 401
49 572
50 141

<precedence relations>
1,34
2,9
3,10
3,13
4,38
5,8
5,11
6,12
7,14
8,34
9,18
10,17
11,15
11,19
11,20
11,21
12,16
12,27
14,19
15,24
16,25
17,22
18,26
19,36
20,23
20,28
21,27
22,34
23,34
24,29
25,30
26,32
26,48
27,31
27,33
29,34
30,35
30,37
30,38
31,39
33,36
34,40
34,41
34,42
34,43
34,44
35,45
38,46
39,50
44,50
45,47
46,48
46,49

<end>
